mixintcount/benchmarks/random_v2l/4_4_794.smt2
(set-logic QF_LIA)
(set-info :ran/ran2.smt2)
(set-info :smt-lib-version 2.0)
(declare-fun x1 () Int)
(declare-fun x2 () Int)
(declare-fun x3 () Int)
(declare-fun x4 () Int)
(assert (<= (+ (* 4 x1) (* (- 8) x2) (* (- 2) x3) (* (- 1) x4) ) (- 550)))
(assert (<= (+ (* (- 8) x1) (* 8 x2) (* 4 x3) (* (- 6) x4) ) (- 314)))
(assert (<= (+ (* 8 x1) (* (- 7) x2) (* 3 x3) (* 1 x4) ) (- 786)))
(assert (<= (+ (* 1 x1) (* 2 x2) (* (- 7) x3) (* (- 5) x4) ) 395))
(assert (<= (+ (* (- 2) x1) (* 10 x2) (* 5 x3) (* (- 8) x4) ) 154))
(assert (<= (+ (* (- 3) x1) (* (- 5) x2) (* 2 x3) (* 4 x4) ) 199))
(assert (<= (+ (* (- 6) x1) (* (- 5) x2) (* (- 4) x3) (* 1 x4) ) (- 279)))
(assert (<= (+ (* 8 x1) (* 3 x2) (* 2 x3) (* (- 1) x4) ) (- 296)))
(assert (<= (+ (* 1 x1) (* 0 x2) (* 0 x3) (* 0 x4) ) 794))
(assert (<= (+ (* (- 1) x1) (* 0 x2) (* 0 x3) (* 0 x4) ) 794))
(assert (<= (+ (* 0 x1) (* 1 x2) (* 0 x3) (* 0 x4) ) 794))
(assert (<= (+ (* 0 x1) (* (- 1) x2) (* 0 x3) (* 0 x4) ) 794))
(assert (<= (+ (* 0 x1) (* 0 x2) (* 1 x3) (* 0 x4) ) 794))
(assert (<= (+ (* 0 x1) (* 0 x2) (* (- 1) x3) (* 0 x4) ) 794))
(assert (<= (+ (* 0 x1) (* 0 x2) (* 0 x3) (* 1 x4) ) 794))
(assert (<= (+ (* 0 x1) (* 0 x2) (* 0 x3) (* (- 1) x4) ) 794))
