mixintcount/benchmarks/random_v2l/4_4_794.in
16 6
#	x1	x2	x3	x4;		0 = Real; 1 = Integer
	1	1	1	1
1	4	-8	-2	-1	-550
1	-8	8	4	-6	-314
1	8	-7	3	1	-786
1	1	2	-7	-5	395
1	-2	10	5	-8	154
1	-3	-5	2	4	199
1	-6	-5	-4	1	-279
1	8	3	2	-1	-296
1	1	0	0	0	794
1	-1	0	0	0	794
1	0	1	0	0	794
1	0	-1	0	0	794
1	0	0	1	0	794
1	0	0	-1	0	794
1	0	0	0	1	794
1	0	0	0	-1	794
